
Gurobi 9.0.1 (linux64) logging started Thu Apr 30 15:49:31 2020

Gurobi Optimizer version 9.0.1 build v9.0.1rc0 (linux64)
Optimize a model with 12677 rows, 12060 columns and 201690 nonzeros
Model fingerprint: 0x5b217c7a
Variable types: 0 continuous, 12060 integer (12032 binary)
Coefficient statistics:
  Matrix range     [1e+00, 1e+01]
  Objective range  [2e+00, 1e+02]
  Bounds range     [1e+00, 1e+00]
  RHS range        [1e+00, 1e+00]

User MIP start produced solution with objective 998 (0.31s)
Loaded user MIP start with objective 998

Presolve removed 3752 rows and 3270 columns
Presolve time: 3.45s
Presolved: 8925 rows, 8790 columns, 167925 nonzeros
Variable types: 0 continuous, 8790 integer (8764 binary)

Root simplex log...

Iteration    Objective       Primal Inf.    Dual Inf.      Time
    2206    5.5506556e+02   5.219468e+03   0.000000e+00      5s
    5266    5.6912079e+02   3.814683e+03   0.000000e+00     10s
    7201    5.7377826e+02   7.989238e+03   0.000000e+00     15s
    8925    5.7528753e+02   2.523773e+02   0.000000e+00     20s
   10490    5.7578994e+02   1.210475e+01   0.000000e+00     25s
   10899    5.7580619e+02   0.000000e+00   0.000000e+00     26s

Root relaxation: objective 5.758062e+02, 10899 iterations, 22.66 seconds

    Nodes    |    Current Node    |     Objective Bounds      |     Work
 Expl Unexpl |  Obj  Depth IntInf | Incumbent    BestBd   Gap | It/Node Time

     0     0  575.80619    0 1862  998.00000  575.80619  42.3%     -   29s
     0     0  594.59363    0 1933  998.00000  594.59363  40.4%     -   85s
     0     0  594.73468    0 1882  998.00000  594.73468  40.4%     -   94s
     0     0  594.74120    0 1862  998.00000  594.74120  40.4%     -   95s
     0     0  594.74120    0 1855  998.00000  594.74120  40.4%     -   96s
     0     0  616.42488    0 1963  998.00000  616.42488  38.2%     -  180s
     0     0  616.69093    0 1884  998.00000  616.69093  38.2%     -  197s
     0     0  616.72363    0 1889  998.00000  616.72363  38.2%     -  201s
     0     0  616.72507    0 1867  998.00000  616.72507  38.2%     -  202s
     0     0  621.33621    0 2003  998.00000  621.33621  37.7%     -  312s
     0     0  621.76717    0 2010  998.00000  621.76717  37.7%     -  336s
     0     0  621.77889    0 2001  998.00000  621.77889  37.7%     -  340s
     0     0  624.98093    0 1986  998.00000  624.98093  37.4%     -  444s
     0     0  625.25872    0 1983  998.00000  625.25872  37.3%     -  468s
     0     0  625.27669    0 1952  998.00000  625.27669  37.3%     -  473s
     0     0  625.28164    0 1959  998.00000  625.28164  37.3%     -  475s
     0     0  626.50170    0 1994  998.00000  626.50170  37.2%     -  514s
     0     0  626.60036    0 2005  998.00000  626.60036  37.2%     -  528s
     0     0  626.61762    0 2034  998.00000  626.61762  37.2%     -  535s
     0     0  626.61969    0 2035  998.00000  626.61969  37.2%     -  537s
     0     0  627.19649    0 2045  998.00000  627.19649  37.2%     -  573s
     0     0  627.23764    0 2037  998.00000  627.23764  37.2%     -  583s
     0     0  627.25268    0 2036  998.00000  627.25268  37.1%     -  588s
     0     0  628.00211    0 2042  998.00000  628.00211  37.1%     -  612s
     0     0  628.04191    0 2027  998.00000  628.04191  37.1%     -  625s
     0     0  628.04920    0 2035  998.00000  628.04920  37.1%     -  630s
     0     0  628.99001    0 2093  998.00000  628.99001  37.0%     -  666s
     0     0  629.08452    0 2111  998.00000  629.08452  37.0%     -  684s
     0     0  629.09670    0 2133  998.00000  629.09670  37.0%     -  690s
     0     0  629.48188    0 2098  998.00000  629.48188  36.9%     -  718s
     0     0  629.55949    0 2126  998.00000  629.55949  36.9%     -  735s
     0     0  629.56822    0 2091  998.00000  629.56822  36.9%     -  739s
     0     0  630.72621    0 2052  998.00000  630.72621  36.8%     -  786s
     0     0  630.79028    0 2055  998.00000  630.79028  36.8%     -  804s
     0     0  630.81120    0 2072  998.00000  630.81120  36.8%     -  809s
     0     0  631.07481    0 2028  998.00000  631.07481  36.8%     -  828s
     0     0  631.10907    0 2045  998.00000  631.10907  36.8%     -  843s
     0     0  631.11554    0 2039  998.00000  631.11554  36.8%     -  847s
     0     0  631.62468    0 2084  998.00000  631.62468  36.7%     -  876s
     0     0  631.69837    0 2113  998.00000  631.69837  36.7%     -  895s
     0     0  631.70963    0 2117  998.00000  631.70963  36.7%     -  900s
     0     0  631.85547    0 2137  998.00000  631.85547  36.7%     -  917s
     0     0  631.85547    0 2089  998.00000  631.85547  36.7%     -  926s
     0     2  631.86784    0 2082  998.00000  631.86784  36.7%     -  999s
     1     3  636.01328    1 1998  998.00000  631.86784  36.7% 35079 1134s
     2     4  633.46656    1 2066  998.00000  633.46656  36.5% 23328 1182s
     3     5  633.64671    2 2069  998.00000  633.46656  36.5% 16686 1195s
     4     6  650.18029    2 1966  998.00000  633.64671  36.5% 27566 1409s
     5     7  634.46646    3 2052  998.00000  633.64671  36.5% 24356 1450s
     6     8  669.16473    3 1844  998.00000  634.46646  36.4% 30262 1649s
     7     9  634.69204    4 2012  998.00000  634.46646  36.4% 26811 1670s
     8    10  661.09379    4 1800  998.00000  634.69204  36.4% 30927 1926s
     9    11  635.01245    5 2021  998.00000  634.69204  36.4% 28328 1948s
    10    12  666.41972    5 1900  998.00000  635.01245  36.4% 31069 2112s
    11    13  635.23005    6 2017  998.00000  635.01245  36.4% 28920 2134s
    12    14  652.23569    6 1950  998.00000  635.23005  36.3% 29220 2238s
    13    15  635.39615    7 2056  998.00000  635.23005  36.3% 27643 2263s
    14    16  668.09658    7 1873  998.00000  635.39615  36.3% 29343 2419s
    15    17  635.51490    8 2039  998.00000  635.39615  36.3% 27699 2433s
    16    18  655.06974    8 1857  998.00000  635.51535  36.3% 29126 2606s
    17    19  636.15767    9 2037  998.00000  635.51626  36.3% 28366 2653s
    18    20  661.73587   10 1792  998.00000  635.51626  36.3% 31724 2967s
    19    21  636.99204   10 1963  998.00000  635.51626  36.3% 30765 3026s
    20    22  657.08952   11 1829  998.00000  635.51626  36.3% 31246 3148s
    21    23  637.54901   11 1958  998.00000  635.51626  36.3% 30168 3174s
    22    24  658.04659   12 1830  998.00000  635.51626  36.3% 30527 3292s
    23    25  637.74632   12 1905  998.00000  635.51626  36.3% 29363 3304s
    24    26  653.04971   13 1777  998.00000  635.51626  36.3% 29941 3456s
    25    27  638.47812   13 1998  998.00000  635.51626  36.3% 29141 3487s
    26    28  666.24136   14 1823  998.00000  635.51626  36.3% 29117 3585s

Cutting planes:
  Gomory: 1
  MIR: 41
  GUB cover: 1
  Zero half: 56
  Mod-K: 2
  RLT: 1222

Explored 27 nodes (983022 simplex iterations) in 3600.01 seconds
Thread count was 1 (of 40 available processors)

Solution count 1: 998 

Time limit reached
Best objective 9.980000000000e+02, best bound 6.360000000000e+02, gap 36.2725%

User-callback calls 34428, time in user-callback 0.06 sec
